Gurobi Optimizer version 9.1.0 build v9.1.0rc0 (linux64)
Thread count: 8 physical cores, 16 logical processors, using up to 16 threads
Optimize a model with 127786 rows, 120480 columns and 691170 nonzeros
Model fingerprint: 0x4acbaf3b
Variable types: 0 continuous, 120480 integer (120480 binary)
Coefficient statistics:
  Matrix range     [1e+00, 1e+00]
  Objective range  [1e+01, 5e+04]
  Bounds range     [1e+00, 1e+00]
  RHS range        [1e+00, 5e+02]
Presolve added 0 rows and 2970 columns
Presolve removed 30 rows and 0 columns
Presolve time: 2.28s
Presolved: 127756 rows, 123450 columns, 520110 nonzeros
Variable types: 0 continuous, 123450 integer (123450 binary)
Found heuristic solution: objective 361495.00000

Concurrent LP optimizer: primal simplex, dual simplex, and barrier
Showing barrier log only...

Root barrier log...

Ordering time: 0.04s

Barrier statistics:
 Dense cols : 240
 AA' NZ     : 4.061e+05
 Factor NZ  : 1.637e+06 (roughly 120 MBytes of memory)
 Factor Ops : 2.201e+08 (less than 1 second per iteration)
 Threads    : 6

                  Objective                Residual
Iter       Primal          Dual         Primal    Dual     Compl     Time
   0   1.22264358e+08 -1.76825450e+08  2.69e+02 3.08e+01  1.58e+04     4s
   1   1.05826398e+06 -1.82162141e+08  7.48e+00 1.01e+04  6.64e+02     5s
   2   5.34335491e+05 -1.56124622e+07  1.68e+00 2.59e+02  6.06e+01     5s
   3   3.93597275e+05 -2.29073915e+06  1.68e-01 1.40e+01  7.69e+00     5s
   4   3.62919629e+05 -1.12010282e+05  3.51e-02 1.84e+00  1.29e+00     5s
   5   3.46686505e+05  1.27711637e+05  2.59e-02 6.74e-01  5.89e-01     5s
   6   3.36653395e+05  2.10444153e+05  2.08e-02 3.13e-01  3.38e-01     6s
   7   3.25553866e+05  2.39135247e+05  1.67e-02 1.74e-01  2.30e-01     6s
   8   3.18150088e+05  2.53618934e+05  1.44e-02 9.97e-02  1.72e-01     6s
   9   3.11449840e+05  2.57833212e+05  1.23e-02 7.26e-02  1.42e-01     6s
  10   3.04945470e+05  2.63403042e+05  1.03e-02 4.41e-02  1.10e-01     7s
  11   3.00612588e+05  2.65735959e+05  8.95e-03 3.26e-02  9.24e-02     7s
  12   2.95392099e+05  2.67789826e+05  7.32e-03 2.27e-02  7.31e-02     7s
  13   2.92327961e+05  2.68910834e+05  6.38e-03 1.77e-02  6.19e-02     8s
  14   2.89851616e+05  2.70124535e+05  5.62e-03 1.17e-02  5.21e-02     8s
  15   2.85893892e+05  2.70880983e+05  4.42e-03 8.58e-03  3.96e-02     8s
  16   2.83656887e+05  2.71326155e+05  3.70e-03 6.36e-03  3.25e-02     9s
  17   2.81457434e+05  2.71750101e+05  2.98e-03 4.55e-03  2.56e-02     9s
  18   2.80080958e+05  2.72058718e+05  2.53e-03 3.21e-03  2.11e-02     9s
  19   2.78866951e+05  2.72240575e+05  2.15e-03 2.45e-03  1.75e-02     9s
  20   2.77752224e+05  2.72408370e+05  1.81e-03 2.18e-03  1.41e-02    10s
  21   2.76942809e+05  2.72538195e+05  1.54e-03 1.47e-03  1.16e-02    10s
  22   2.76232263e+05  2.72586648e+05  1.30e-03 1.27e-03  9.58e-03    10s
  23   2.75568784e+05  2.72658310e+05  1.06e-03 1.38e-03  7.65e-03    10s
  24   2.75024110e+05  2.72704414e+05  8.58e-04 1.07e-03  6.09e-03    10s
  25   2.74761412e+05  2.72755149e+05  7.71e-04 8.65e-04  5.26e-03    11s
  26   2.74432878e+05  2.72792721e+05  6.42e-04 8.26e-04  4.30e-03    11s
  27   2.74123572e+05  2.72807372e+05  5.15e-04 7.24e-04  3.45e-03    11s
  28   2.73948548e+05  2.72823744e+05  4.42e-04 5.85e-04  2.95e-03    11s
  29   2.73750470e+05  2.72848477e+05  3.61e-04 4.64e-04  2.36e-03    12s
  30   2.73578236e+05  2.72863628e+05  2.95e-04 3.54e-04  1.87e-03    12s
  31   2.73458315e+05  2.72881875e+05  2.46e-04 3.52e-04  1.51e-03    12s
  32   2.73392776e+05  2.72897041e+05  2.21e-04 2.80e-04  1.30e-03    12s
  33   2.73333927e+05  2.72901090e+05  1.95e-04 2.39e-04  1.13e-03    13s
  34   2.73257219e+05  2.72906895e+05  1.62e-04 1.91e-04  9.14e-04    13s
  35   2.73178663e+05  2.72910969e+05  1.24e-04 1.56e-04  6.99e-04    13s
  36   2.73145487e+05  2.72917186e+05  1.08e-04 1.10e-04  5.95e-04    13s
  37   2.73114763e+05  2.72919311e+05  9.40e-05 9.43e-05  5.10e-04    14s
  38   2.73096697e+05  2.72922274e+05  8.61e-05 7.64e-05  4.54e-04    14s
  39   2.73072295e+05  2.72924646e+05  7.50e-05 6.13e-05  3.84e-04    14s
  40   2.73063019e+05  2.72925588e+05  7.06e-05 5.33e-05  3.57e-04    14s
  41   2.73040397e+05  2.72926897e+05  5.85e-05 4.22e-05  2.95e-04    15s
  42   2.73020263e+05  2.72928001e+05  4.77e-05 3.18e-05  2.40e-04    15s
  43   2.73005329e+05  2.72928724e+05  3.96e-05 2.66e-05  1.99e-04    15s
  44   2.72992696e+05  2.72930373e+05  3.35e-05 1.75e-05  1.62e-04    15s
  45   2.72982183e+05  2.72930917e+05  2.76e-05 1.36e-05  1.33e-04    16s
  46   2.72967511e+05  2.72931425e+05  2.00e-05 9.70e-06  9.36e-05    16s
  47   2.72963265e+05  2.72932172e+05  1.76e-05 6.28e-06  8.06e-05    16s
  48   2.72958056e+05  2.72932581e+05  1.48e-05 3.58e-06  6.60e-05    16s
  49   2.72950581e+05  2.72932703e+05  1.08e-05 3.01e-06  4.62e-05    16s
  50   2.72948240e+05  2.72932945e+05  9.49e-06 2.19e-06  3.95e-05    17s
  51   2.72943438e+05  2.72933030e+05  6.38e-06 1.60e-06  2.69e-05    17s
  52   2.72941240e+05  2.72933114e+05  5.06e-06 1.28e-06  2.10e-05    17s
  53   2.72939346e+05  2.72933265e+05  3.80e-06 7.23e-07  1.57e-05    17s
  54   2.72937076e+05  2.72933332e+05  2.31e-06 5.30e-07  9.67e-06    18s
  55   2.72936197e+05  2.72933454e+05  1.77e-06 2.19e-07  7.07e-06    18s
  56   2.72935042e+05  2.72933481e+05  9.80e-07 1.55e-07  4.03e-06    18s
  57   2.72934278e+05  2.72933535e+05  4.67e-07 5.67e-08  1.92e-06    18s
  58   2.72934158e+05  2.72933556e+05  3.83e-07 2.24e-08  1.55e-06    19s
  59   2.72933803e+05  2.72933561e+05  1.44e-07 1.68e-08  6.24e-07    19s
  60   2.72933636e+05  2.72933573e+05  3.41e-08 1.73e-08  1.64e-07    19s
  61   2.72933583e+05  2.72933582e+05  2.31e-10 1.76e-08  1.66e-09    19s

Barrier solved model in 61 iterations and 18.94 seconds
Optimal objective 2.72933583e+05


Root crossover log...

   51330 DPushes remaining with DInf 0.0000000e+00                20s
     123 DPushes remaining with DInf 0.0000000e+00                20s
       0 DPushes remaining with DInf 0.0000000e+00                21s

     827 PPushes remaining with PInf 0.0000000e+00                21s
       0 PPushes remaining with PInf 0.0000000e+00                21s

  Push phase complete: Pinf 0.0000000e+00, Dinf 1.9772983e-10     21s


Root simplex log...

Iteration    Objective       Primal Inf.    Dual Inf.      Time
   12336    2.7293358e+05   0.000000e+00   0.000000e+00     21s
   12336    2.7293358e+05   0.000000e+00   0.000000e+00     21s

Solved with barrier

Root relaxation: objective 2.729336e+05, 12336 iterations, 17.50 seconds

    Nodes    |    Current Node    |     Objective Bounds      |     Work
 Expl Unexpl |  Obj  Depth IntInf | Incumbent    BestBd   Gap | It/Node Time

     0     0 272933.582    0 16150 361495.000 272933.582  24.5%     -   24s
H    0     0                    291055.00000 272933.582  6.23%     -   26s
H    0     0                    290950.00000 272933.582  6.19%     -   26s
H    0     0                    290829.00000 272933.582  6.15%     -   28s
     0     0 272937.405    0 16140 290829.000 272937.405  6.15%     -   38s
H    0     0                    290775.00000 272937.405  6.13%     -   41s
     0     0 272937.528    0 16140 290775.000 272937.528  6.13%     -   43s
     0     0 272939.543    0 16141 290775.000 272939.543  6.13%     -   53s
H    0     0                    290554.00000 272939.543  6.06%     -   56s
     0     0 272939.866    0 16141 290554.000 272939.866  6.06%     -   59s
     0     0 272939.877    0 16140 290554.000 272939.877  6.06%     -   61s
     0     0 272939.877    0 16139 290554.000 272939.877  6.06%     -   75s
H    0     0                    290517.00000 272940.138  6.05%     -  123s
H    0     2                    290472.00000 272940.138  6.04%     -  129s
     0     2 272940.138    0 16130 290472.000 272940.138  6.04%     -  129s
     1     4 273193.667    1 16878 290472.000 272940.284  6.04% 21913  235s
     3     7 273325.475    2 18451 290472.000 273193.791  5.95% 26825  300s

Cutting planes:
  Gomory: 5

Explored 6 nodes (116055 simplex iterations) in 300.08 seconds
Thread count was 16 (of 16 available processors)

Solution count 8: 290472 290517 290554 ... 361495

Time limit reached
Best objective 2.904720000000e+05, best bound 2.731940000000e+05, gap 5.9482%

User-callback calls 64205, time in user-callback 0.81 sec
['/opt/local/stow/gurobi910/linux64/lib/libgurobi91.so']
Result: runtime=300.02sec; objective=290472
Solution written to /autofs/unityaccount/cremi/mdeboute/Bureau/multi-period-flp/solution/instSingle_I30_J500_T8_1_result.txt
